2396124
0,62,225,181,131,24,30,207,206,73,156,146,139,132,12,226,41,42,162,176,217,85,135,180,123,75,56,194,208,197,136,28,2,137,196,157,189,201,215,17,23,198,113,192,166,94,125,153,199,224,213,110,212,148,7,119,210,173,15,63,144,133,18,16,8,36,107,27,115,77,39,129,168,150,93,71,228,183,178,184,167,229,138,58,220,83,79,84,60,103,102,186,114,11,202,141,227,87,32,86,80,54,49,48,134,31,66,70,209,182,191,74,88,67,155,152,128,145,55,51,47,46,29,109,69,45,72,97,151,205,22,68,1,171,175,14,59,35,117,126,177,158,200,9,190,78,187,90,5,37,222,106,204,3,20,185,95,25,34,160,26,101,154,111,61,33,195,165,169,89,170,149,108,216,223,57,124,96,43,100,214,143,4,219,211,193,164,163,159,118,50,121,112,122,203,81,44,92,142,10,13,64,147,76,172,130,127,98,174,65,53,52,91,99,104,218,105,40,140,221,179,120,188,116,21,19,6,38,161,82,0